1111100 AB red
394 417
1111100 BA
400 425 450 475 497 522 538 557 583 604 634 664 698 729 762 783 803 827 852 885 918 951 983 1017 1051 1082 1107 1125 1152 1179 1206 1238 1266
0000011 AB red
414
0000011 BA
420 446 492 532 572 612 652 692 732 772 813 853 894 933 972 1002 1036 1056 1082 1108 1133 1158 1190 1219 1263
